Gurobi 9.1.2 (linux64) logging started Fri Mar  4 11:01:23 2022

Gurobi Optimizer version 9.1.2 build v9.1.2rc0 (linux64)
Thread count: 12 physical cores, 24 logical processors, using up to 1 threads
Optimize a model with 15735 rows, 15735 columns and 180670 nonzeros
Model fingerprint: 0x87dadb1b
Model has 158581 quadratic objective terms
Variable types: 15675 continuous, 60 integer (60 binary)
Coefficient statistics:
  Matrix range     [4e-04, 1e+00]
  Objective range  [5e-23, 3e-03]
  QObjective range [2e-06, 5e-05]
  Bounds range     [1e+00, 1e+00]
  RHS range        [2e+00, 2e+00]
Found heuristic solution: objective 23.8362797
Presolve removed 3856 rows and 3856 columns
Presolve time: 0.41s
Presolved: 11879 rows, 11879 columns, 161992 nonzeros
Presolved model has 118198 quadratic objective terms
Variable types: 11819 continuous, 60 integer (60 binary)
Warning: Markowitz tolerance tightened to 0.125
Warning: Markowitz tolerance tightened to 0.25
Warning: Markowitz tolerance tightened to 0.5

Root simplex log...

Iteration    Objective       Primal Inf.    Dual Inf.      Time
    6340    1.8217894e+01   0.000000e+00   1.546885e+03      6s
    8744    1.3924325e+01   0.000000e+00   6.423997e+02     11s
   10381    1.3924325e+01   0.000000e+00   5.370385e+02     16s
   11720    1.3924325e+01   0.000000e+00   1.524203e+03     21s
   12327    1.3924325e+01   0.000000e+00   9.334033e+02     26s
   12800    7.3530521e+00   0.000000e+00   0.000000e+00     31s

Root relaxation: objective 7.353052e+00, 12800 iterations, 29.73 seconds

    Nodes    |    Current Node    |     Objective Bounds      |     Work
 Expl Unexpl |  Obj  Depth IntInf | Incumbent    BestBd   Gap | It/Node Time

     0     0    7.35305    0   60   23.83628    7.35305  69.2%     -   30s
     0     0    7.37449    0   60   23.83628    7.37449  69.1%     -   34s
H    0     0                      12.2901481    7.37449  40.0%     -   38s
     0     0    7.41826    0   60   12.29015    7.41826  39.6%     -   42s
     0     0    7.46738    0   60   12.29015    7.46738  39.2%     -   46s
     0     0    7.50451    0   60   12.29015    7.50451  38.9%     -   50s
     0     0    7.50962    0   60   12.29015    7.50962  38.9%     -   54s
     0     0    7.55651    0   60   12.29015    7.55651  38.5%     -   58s
     0     0    7.58229    0   60   12.29015    7.58229  38.3%     -   62s
     0     0    7.61894    0   60   12.29015    7.61894  38.0%     -   66s
     0     0    7.62927    0   60   12.29015    7.62927  37.9%     -   71s
     0     0    7.65283    0   60   12.29015    7.65283  37.7%     -   77s
     0     0    7.73135    0   60   12.29015    7.73135  37.1%     -   80s
     0     0    7.76548    0   60   12.29015    7.76548  36.8%     -   86s
     0     0    7.78453    0   60   12.29015    7.78453  36.7%     -   92s
     0     0    7.81011    0   60   12.29015    7.81011  36.5%     -   96s
     0     0    7.84557    0   60   12.29015    7.84557  36.2%     -  101s
     0     0    7.86331    0   60   12.29015    7.86331  36.0%     -  106s
     0     0    7.87121    0   60   12.29015    7.87121  36.0%     -  115s
     0     0    7.88553    0   60   12.29015    7.88553  35.8%     -  119s
     0     0    7.89047    0   60   12.29015    7.89047  35.8%     -  128s
     0     0    7.90206    0   60   12.29015    7.90206  35.7%     -  132s
     0     0    7.90448    0   60   12.29015    7.90448  35.7%     -  139s
     0     0    7.95264    0   60   12.29015    7.95264  35.3%     -  146s
     0     0    7.97052    0   60   12.29015    7.97052  35.1%     -  153s
     0     0    7.98847    0   60   12.29015    7.98847  35.0%     -  161s
     0     0    8.01164    0   60   12.29015    8.01164  34.8%     -  168s
     0     0    8.01711    0   60   12.29015    8.01711  34.8%     -  175s
     0     0    8.04232    0   60   12.29015    8.04232  34.6%     -  179s
     0     0    8.08771    0   60   12.29015    8.08771  34.2%     -  189s
     0     0    8.14533    0   60   12.29015    8.14533  33.7%     -  196s
     0     0    8.15655    0   60   12.29015    8.15655  33.6%     -  206s
     0     0    8.18845    0   60   12.29015    8.18845  33.4%     -  212s
     0     0    8.20634    0   60   12.29015    8.20634  33.2%     -  217s
     0     0    8.25522    0   60   12.29015    8.25522  32.8%     -  225s
     0     0    8.27143    0   60   12.29015    8.27143  32.7%     -  230s
     0     0    8.28043    0   60   12.29015    8.28043  32.6%     -  237s
     0     0    8.29368    0   60   12.29015    8.29368  32.5%     -  242s
     0     0    8.29380    0   60   12.29015    8.29380  32.5%     -  247s
     0     0    8.29844    0   60   12.29015    8.29844  32.5%     -  251s
     0     0    8.29889    0   60   12.29015    8.29889  32.5%     -  258s
     0     0    8.30705    0   60   12.29015    8.30705  32.4%     -  263s
     0     0    8.31565    0   60   12.29015    8.31565  32.3%     -  271s
     0     0    8.34342    0   60   12.29015    8.34342  32.1%     -  278s
     0     0    8.36766    0   60   12.29015    8.36766  31.9%     -  287s
     0     0    8.37230    0   60   12.29015    8.37230  31.9%     -  296s
     0     0    8.38307    0   60   12.29015    8.38307  31.8%     -  304s
     0     0    8.39093    0   60   12.29015    8.39093  31.7%     -  314s
     0     0    8.39096    0   60   12.29015    8.39096  31.7%     -  321s
     0     0    8.40660    0   60   12.29015    8.40660  31.6%     -  326s
     0     0    8.41648    0   60   12.29015    8.41648  31.5%     -  331s
     0     0    8.42759    0   60   12.29015    8.42759  31.4%     -  340s
     0     0    8.43280    0   60   12.29015    8.43280  31.4%     -  351s
     0     0    8.46541    0   60   12.29015    8.46541  31.1%     -  359s
     0     0    8.47136    0   60   12.29015    8.47136  31.1%     -  370s
     0     0    8.49683    0   60   12.29015    8.49683  30.9%     -  376s
     0     0    8.49852    0   60   12.29015    8.49852  30.9%     -  385s
     0     0    8.51474    0   60   12.29015    8.51474  30.7%     -  390s
     0     0    8.53957    0   60   12.29015    8.53957  30.5%     -  399s
     0     0    8.53966    0   60   12.29015    8.53966  30.5%     -  406s
     0     0    8.55264    0   60   12.29015    8.55264  30.4%     -  410s
     0     0    8.56061    0   60   12.29015    8.56061  30.3%     -  419s
     0     0    8.57408    0   60   12.29015    8.57408  30.2%     -  425s
     0     0    8.57446    0   60   12.29015    8.57446  30.2%     -  433s
     0     0    8.59085    0   60   12.29015    8.59085  30.1%     -  438s
     0     0    8.60384    0   60   12.29015    8.60384  30.0%     -  450s
     0     0    8.60658    0   60   12.29015    8.60658  30.0%     -  459s
     0     0    8.61906    0   60   12.29015    8.61906  29.9%     -  467s
     0     0    8.62012    0   60   12.29015    8.62012  29.9%     -  476s
     0     0    8.63219    0   60   12.29015    8.63219  29.8%     -  483s
     0     0    8.63228    0   60   12.29015    8.63228  29.8%     -  491s
     0     0    8.64416    0   60   12.29015    8.64416  29.7%     -  499s
     0     0    8.66382    0   60   12.29015    8.66382  29.5%     -  513s
     0     0    8.66389    0   60   12.29015    8.66389  29.5%     -  520s
     0     0    8.69744    0   60   12.29015    8.69744  29.2%     -  528s
     0     0    8.69777    0   60   12.29015    8.69777  29.2%     -  536s
     0     0    8.72231    0   60   12.29015    8.72231  29.0%     -  542s
     0     0    8.72408    0   60   12.29015    8.72408  29.0%     -  552s
     0     0    8.75904    0   60   12.29015    8.75904  28.7%     -  560s
     0     0    8.76981    0   60   12.29015    8.76981  28.6%     -  568s
     0     0    8.79003    0   60   12.29015    8.79003  28.5%     -  578s
     0     0    8.79286    0   60   12.29015    8.79286  28.5%     -  585s
     0     0    8.81386    0   60   12.29015    8.81386  28.3%     -  594s
     0     0    8.82638    0   60   12.29015    8.82638  28.2%     -  604s
     0     0    8.82762    0   60   12.29015    8.82762  28.2%     -  615s
     0     0    8.83565    0   60   12.29015    8.83565  28.1%     -  623s
     0     0    8.83566    0   60   12.29015    8.83566  28.1%     -  636s
     0     0    8.84763    0   60   12.29015    8.84763  28.0%     -  644s
     0     0    8.84816    0   60   12.29015    8.84816  28.0%     -  656s
     0     0    8.85506    0   60   12.29015    8.85506  27.9%     -  667s
     0     0    8.86669    0   60   12.29015    8.86669  27.9%     -  682s
     0     0    8.87695    0   60   12.29015    8.87695  27.8%     -  691s
     0     0    8.87713    0   60   12.29015    8.87713  27.8%     -  699s
     0     0    8.88560    0   60   12.29015    8.88560  27.7%     -  706s
     0     0    8.88691    0   60   12.29015    8.88691  27.7%     -  716s
     0     0    8.88724    0   60   12.29015    8.88724  27.7%     -  727s
     0     0    8.88736    0   60   12.29015    8.88736  27.7%     -  742s
     0     0    8.89979    0   60   12.29015    8.89979  27.6%     -  750s
     0     0    8.90056    0   60   12.29015    8.90056  27.6%     -  760s
     0     0    8.90799    0   60   12.29015    8.90799  27.5%     -  772s
     0     0    8.91660    0   60   12.29015    8.91660  27.4%     -  784s
     0     0    8.91671    0   60   12.29015    8.91671  27.4%     -  796s
     0     0    8.92825    0   60   12.29015    8.92825  27.4%     -  805s
     0     0    8.92881    0   60   12.29015    8.92881  27.3%     -  819s
     0     0    8.93435    0   60   12.29015    8.93435  27.3%     -  829s
     0     0    8.93439    0   60   12.29015    8.93439  27.3%     -  836s
     0     0    8.94444    0   60   12.29015    8.94444  27.2%     -  844s
     0     0    8.94524    0   60   12.29015    8.94524  27.2%     -  851s
     0     0    8.95686    0   60   12.29015    8.95686  27.1%     -  861s
     0     0    8.96625    0   60   12.29015    8.96625  27.0%     -  872s
     0     0    8.96625    0   60   12.29015    8.96625  27.0%     -  884s
     0     0    8.96980    0   60   12.29015    8.96980  27.0%     -  893s
     0     0    8.97285    0   60   12.29015    8.97285  27.0%     -  905s
     0     0    8.97313    0   60   12.29015    8.97313  27.0%     -  924s
     0     0    8.97685    0   60   12.29015    8.97685  27.0%     -  930s
     0     0    8.98061    0   60   12.29015    8.98061  26.9%     -  940s
     0     0    8.98087    0   60   12.29015    8.98087  26.9%     -  953s
     0     0    8.98091    0   60   12.29015    8.98091  26.9%     -  963s
     0     0    8.98537    0   60   12.29015    8.98537  26.9%     -  972s
     0     0    8.98539    0   60   12.29015    8.98539  26.9%     -  982s
     0     0    8.99014    0   60   12.29015    8.99014  26.9%     -  992s
     0     0    8.99166    0   60   12.29015    8.99166  26.8%     - 1010s
     0     0   10.03206    0   37   12.29015   10.03206  18.4%     - 1143s
     0     2   10.11199    0   37   12.29015   10.11199  17.7%     - 1176s
     4     4   12.28256    3    2   12.29015   12.05354  1.93%  26.2 1180s

Cutting planes:
  Network: 48

Explored 9 nodes (15343 simplex iterations) in 1183.68 seconds
Thread count was 1 (of 24 available processors)

Solution count 2: 12.2901 23.8363 

Optimal solution found (tolerance 1.00e-04)
Best objective 1.229014809128e+01, best bound 1.229014809128e+01, gap 0.0000%
